param set_len = 54;
param target_sum = 13954405296;
param values := [1] 123787481 [2] 908958349 [3] 527937304 [4] 48335191 [5] 635480848 [6] 157076355 [7] 731414572 [8] 460633486 [9] 752304643 [10] 1053059938 [11] 664067049 [12] 1056461459 [13] 984335754 [14] 824267182 [15] 724418396 [16] 877937757 [17] 877489715 [18] 407000494 [19] 701518116 [20] 219860503 [21] 567032704 [22] 878710724 [23] 287604134 [24] 897256151 [25] 925053023 [26] 23832071 [27] 1010347440 [28] 70354894 [29] 376129802 [30] 325380982 [31] 375142295 [32] 1037907593 [33] 688191193 [34] 978243118 [35] 651772711 [36] 60991080 [37] 711389574 [38] 992578107 [39] 51369994 [40] 583026604 [41] 65282458 [42] 906024046 [43] 373912062 [44] 798240975 [45] 789790543 [46] 130254182 [47] 378456096 [48] 156477368 [49] 166340063 [50] 209470783 [51] 20900509 [52] 198768623 [53] 606624107 [54] 534541789 ;
